13  5
0  59  1  37  2  67  3  39  4  30
0  89  1  41  2  42  3  59  4  43
0  18  1  56  2  75  3  95  4  75
0  65  1  67  2  50  3  57  4  13
0   1  1  79  2  71  3  78  4  88
0  49  1 100  2  30  3  76  4  36
0  99  1   9  2  34  3  44  4  62
0  35  1  46  2  58  3  26  4  73
0   8  1  98  2  97  3  20  4  73
0  39  1  73  2  20  3  55  4  30
0  60  1  18  2  97  3  61  4  22
0  71  1   1  2   4  3  88  4  52
0  76  1  30  2  51  3  77  4  22